2 10 14 22 26 34 38 46 50 55 58 62 67 70 74 79 82 86 91 94 103 106 115 118 127 130 135 139 142 147 151 154 159 166 171 178 183 184 195 196 207 208 219 231 243 249 255 261 267 273 279 285 291 297 303 309 321 333 345 357 369 381 393 398 405 410 413 417 422 425 429 434 437 446 449 458 461 466 470 473 478 482 485 490 494 497 502 506 509 514 518 526 530
1 6 8 11 13 18 20 23 25 30 32 35 42 44 47 49 54 56 59 61 66 68 71 73 78 80 83 85 90 92 95 97 102 104 107 109 114 116 119 121 126 128 131 133 138 140 143 145 150 152 155 157 162 164 167 169 174 179 181 186 191 193 198 203 205 210 215 217 222 227 229 234 239 241 246 251 253 258 263 265 270 275 277 282 287 289 294 299 301 306 311 313 318 323 325 330 335 337 340 342 347 349 354 359 361 366 371 373 376 378 383 385 388 390 395 397 400 402 407 409 412 414 419 421 424 426 431 433 436 438 443 445 448 450 455 457 460 462 467 469 472 474 479 481 484 486 491 493 496 498 503 505 508 510 515 517 520 522 527 529 532 534 536
28 40 52 64 76 81 88 93 100 105 112 117 124 129 136 141 148 153 160 165 170 172 177 182 187 189 192 194 199 201 204 206 209 211 213 216 218 221 223 225 228 230 233 235 240 242 245 247 252 254 257 259 264 266 269 271 276 278 281 283 288 293 295 300 305 307 310 312 317 319 322 324 329 331 334 336 341 343 346 348 353 355 356 358 360 363 365 367 368 370 372 375 377 380 382 387 389 392 394 399 404 406 411 416 423 428 435 440 447 452 459 464 471 476 483 488 500 512 524
12 17 24 27 36 43 65 75 96 98 137 156 158 176 190 197 220 236 250 280 296 326 344 351 379 386 418 420 439 468 489 499 519 521 528
3 9 15 21 29 37 39 41 51 53 63 77 89 101 108 113 120 125 132 144 168 175 180 232 244 248 256 260 262 268 272 274 284 286 290 292 298 302 304 308 314 316 320 328 332 384 396 401 408 432 444 451 456 463 475 487 501 511 513 523 525 535 537
4 5 7 16 19 31 33 45 48 57 60 69 72 84 87 99 110 111 122 123 134 146 149 161 163 173 185 188 200 202 212 214 224 226 237 238 315 327 338 339 350 352 362 364 374 391 403 415 427 430 441 442 453 454 465 477 480 492 495 504 507 516 531 533
